Minimize
	value: tt

Subject to
tt + 1024 s_1_1 > 0.0
tt - t_1_1 - 1024.000000 s_1_1 > -1020.268500
tt + 1024 s_2_1 > 0.0
tt - t_2_1 - 1024.000000 s_2_1 > -1020.706400
tt + 1024 s_1_2 > 0.0
tt - t_1_2 - 1024.000000 s_1_2 > -1010.047300
tt + 1024 s_2_2 > 0.0
tt - t_2_2 - 1024.000000 s_2_2 > -1015.417600
tt + 1024 s_1_3 > 0.0
tt - t_1_3 - 1024.000000 s_1_3 > -1020.805900
tt + 1024 s_2_3 > 0.0
tt - t_2_3 - 1024.000000 s_2_3 > -1021.888300
tt + 1024 s_1_4 > 0.0
tt - t_1_4 - 1024.000000 s_1_4 > -998.869800
tt + 1024 s_2_4 > 0.0
tt - t_2_4 - 1024.000000 s_2_4 > -1008.896200
tt + 1024 s_1_5 > 0.0
tt - t_1_5 - 1043.861570 s_1_5 + 19.861570 s_1_4 > -1023.854800
tt + 1024 s_2_5 > 0.0
tt - t_2_5 - 1051.259833 s_2_5 + 27.259833 s_2_4 > -1022.742700
s_1_1 + s_2_1  = 1
s_1_2 + s_2_2  = 1
s_1_3 + s_2_3  = 1
s_1_4 + s_2_4  = 1
s_1_5 + s_2_5  = 1
s_1_1 + s_1_2 + 1024 r_1_1_2 >= 2
- s_1_1 - s_1_2 - 1024 r_1_1_2 >= -1025
t_1_1 - t_1_2 - 1024.000000 u_1_1_2 + 2048.000000 r_1_1_2 > -1010.047300
s_2_1 + s_2_2 + 1024 r_2_1_2 >= 2
- s_2_1 - s_2_2 - 1024 r_2_1_2 >= -1025
t_2_1 - t_2_2 - 1024.000000 u_2_1_2 + 2048.000000 r_2_1_2 > -1015.417600
s_1_1 + s_1_3 + 1024 r_1_1_3 >= 2
- s_1_1 - s_1_3 - 1024 r_1_1_3 >= -1025
t_1_1 - t_1_3 - 1024.000000 u_1_1_3 + 2048.000000 r_1_1_3 > -1020.805900
s_2_1 + s_2_3 + 1024 r_2_1_3 >= 2
- s_2_1 - s_2_3 - 1024 r_2_1_3 >= -1025
t_2_1 - t_2_3 - 1024.000000 u_2_1_3 + 2048.000000 r_2_1_3 > -1021.888300
s_1_1 + s_1_4 + 1024 r_1_1_4 >= 2
- s_1_1 - s_1_4 - 1024 r_1_1_4 >= -1025
t_1_1 - t_1_4 - 1024.000000 u_1_1_4 + 2048.000000 r_1_1_4 > -998.869800
s_2_1 + s_2_4 + 1024 r_2_1_4 >= 2
- s_2_1 - s_2_4 - 1024 r_2_1_4 >= -1025
t_2_1 - t_2_4 - 1024.000000 u_2_1_4 + 2048.000000 r_2_1_4 > -1008.896200
t_1_5 - t_1_1 - 1024.000000 s_1_1 > -1020.268500
t_1_5 - t_2_1 - 1024.000000 s_2_1 > -1020.706400
t_2_5 - t_1_1 - 1024.000000 s_1_1 > -1020.268500
t_2_5 - t_2_1 - 1024.000000 s_2_1 > -1020.706400
s_1_2 + s_1_1 + 1024 r_1_1_2 >= 2
- s_1_2 - s_1_1 - 1024 r_1_1_2 >= -1025
t_1_2 - t_1_1 + 1024.000000 u_1_1_2 + 2048.000000 r_1_1_2 > 3.731500
s_2_2 + s_2_1 + 1024 r_2_1_2 >= 2
- s_2_2 - s_2_1 - 1024 r_2_1_2 >= -1025
t_2_2 - t_2_1 + 1024.000000 u_2_1_2 + 2048.000000 r_2_1_2 > 3.293600
s_1_2 + s_1_3 + 1024 r_1_2_3 >= 2
- s_1_2 - s_1_3 - 1024 r_1_2_3 >= -1025
t_1_2 - t_1_3 - 1024.000000 u_1_2_3 + 2048.000000 r_1_2_3 > -1020.805900
s_2_2 + s_2_3 + 1024 r_2_2_3 >= 2
- s_2_2 - s_2_3 - 1024 r_2_2_3 >= -1025
t_2_2 - t_2_3 - 1024.000000 u_2_2_3 + 2048.000000 r_2_2_3 > -1021.888300
s_1_2 + s_1_4 + 1024 r_1_2_4 >= 2
- s_1_2 - s_1_4 - 1024 r_1_2_4 >= -1025
t_1_2 - t_1_4 - 1024.000000 u_1_2_4 + 2048.000000 r_1_2_4 > -998.869800
s_2_2 + s_2_4 + 1024 r_2_2_4 >= 2
- s_2_2 - s_2_4 - 1024 r_2_2_4 >= -1025
t_2_2 - t_2_4 - 1024.000000 u_2_2_4 + 2048.000000 r_2_2_4 > -1008.896200
t_1_5 - t_1_2 - 1024.000000 s_1_2 > -1010.047300
t_1_5 - t_2_2 - 1024.000000 s_2_2 > -1015.417600
t_2_5 - t_1_2 - 1024.000000 s_1_2 > -1010.047300
t_2_5 - t_2_2 - 1024.000000 s_2_2 > -1015.417600
s_1_3 + s_1_1 + 1024 r_1_1_3 >= 2
- s_1_3 - s_1_1 - 1024 r_1_1_3 >= -1025
t_1_3 - t_1_1 + 1024.000000 u_1_1_3 + 2048.000000 r_1_1_3 > 3.731500
s_2_3 + s_2_1 + 1024 r_2_1_3 >= 2
- s_2_3 - s_2_1 - 1024 r_2_1_3 >= -1025
t_2_3 - t_2_1 + 1024.000000 u_2_1_3 + 2048.000000 r_2_1_3 > 3.293600
s_1_3 + s_1_2 + 1024 r_1_2_3 >= 2
- s_1_3 - s_1_2 - 1024 r_1_2_3 >= -1025
t_1_3 - t_1_2 + 1024.000000 u_1_2_3 + 2048.000000 r_1_2_3 > 13.952700
s_2_3 + s_2_2 + 1024 r_2_2_3 >= 2
- s_2_3 - s_2_2 - 1024 r_2_2_3 >= -1025
t_2_3 - t_2_2 + 1024.000000 u_2_2_3 + 2048.000000 r_2_2_3 > 8.582400
s_1_3 + s_1_4 + 1024 r_1_3_4 >= 2
- s_1_3 - s_1_4 - 1024 r_1_3_4 >= -1025
t_1_3 - t_1_4 - 1024.000000 u_1_3_4 + 2048.000000 r_1_3_4 > -998.869800
s_2_3 + s_2_4 + 1024 r_2_3_4 >= 2
- s_2_3 - s_2_4 - 1024 r_2_3_4 >= -1025
t_2_3 - t_2_4 - 1024.000000 u_2_3_4 + 2048.000000 r_2_3_4 > -1008.896200
t_1_5 - t_1_3 - 1024.000000 s_1_3 > -1020.805900
t_1_5 - t_2_3 - 1024.000000 s_2_3 > -1021.888300
t_2_5 - t_1_3 - 1024.000000 s_1_3 > -1020.805900
t_2_5 - t_2_3 - 1024.000000 s_2_3 > -1021.888300
s_1_4 + s_1_1 + 1024 r_1_1_4 >= 2
- s_1_4 - s_1_1 - 1024 r_1_1_4 >= -1025
t_1_4 - t_1_1 + 1024.000000 u_1_1_4 + 2048.000000 r_1_1_4 > 3.731500
s_2_4 + s_2_1 + 1024 r_2_1_4 >= 2
- s_2_4 - s_2_1 - 1024 r_2_1_4 >= -1025
t_2_4 - t_2_1 + 1024.000000 u_2_1_4 + 2048.000000 r_2_1_4 > 3.293600
s_1_4 + s_1_2 + 1024 r_1_2_4 >= 2
- s_1_4 - s_1_2 - 1024 r_1_2_4 >= -1025
t_1_4 - t_1_2 + 1024.000000 u_1_2_4 + 2048.000000 r_1_2_4 > 13.952700
s_2_4 + s_2_2 + 1024 r_2_2_4 >= 2
- s_2_4 - s_2_2 - 1024 r_2_2_4 >= -1025
t_2_4 - t_2_2 + 1024.000000 u_2_2_4 + 2048.000000 r_2_2_4 > 8.582400
s_1_4 + s_1_3 + 1024 r_1_3_4 >= 2
- s_1_4 - s_1_3 - 1024 r_1_3_4 >= -1025
t_1_4 - t_1_3 + 1024.000000 u_1_3_4 + 2048.000000 r_1_3_4 > 3.194100
s_2_4 + s_2_3 + 1024 r_2_3_4 >= 2
- s_2_4 - s_2_3 - 1024 r_2_3_4 >= -1025
t_2_4 - t_2_3 + 1024.000000 u_2_3_4 + 2048.000000 r_2_3_4 > 2.111700
t_1_5 - t_1_4 - 1024.000000 s_1_4 > -998.869800
t_1_5 - t_2_4 - 1024.000000 s_2_4 > -1008.896200
t_2_5 - t_1_4 - 1024.000000 s_1_4 > -998.869800
t_2_5 - t_2_4 - 1024.000000 s_2_4 > -1008.896200
Binary
s_1_1
s_2_1
s_1_2
s_2_2
s_1_3
s_2_3
s_1_4
s_2_4
s_1_5
s_2_5
u_1_1_2
r_1_1_2
u_2_1_2
r_2_1_2
u_1_1_3
r_1_1_3
u_2_1_3
r_2_1_3
u_1_1_4
r_1_1_4
u_2_1_4
r_2_1_4
u_1_2_3
r_1_2_3
u_2_2_3
r_2_2_3
u_1_2_4
r_1_2_4
u_2_2_4
r_2_2_4
u_1_3_4
r_1_3_4
u_2_3_4
r_2_3_4

End
